 250
 1
 250
{+1.0,+1.0,+1.0,+1.0,+1.0,+1.0,+1.0,+1.0,+1.0,+1.0,+1.0,+1.0,+1.0,+1.0,+1.0,+1.0,+1.0,+1.0,+1.0,+1.0,+1.0,+1.0,+1.0,+1.0,+1.0,+1.0,+1.0,+1.0,+1.0,+1.0,+1.0,+1.0,+1.0,+1.0,+1.0,+1.0,+1.0,+1.0,+1.0,+1.0,+1.0,+1.0,+1.0,+1.0,+1.0,+1.0,+1.0,+1.0,+1.0,+1.0,+1.0,+1.0,+1.0,+1.0,+1.0,+1.0,+1.0,+1.0,+1.0,+1.0,+1.0,+1.0,+1.0,+1.0,+1.0,+1.0,+1.0,+1.0,+1.0,+1.0,+1.0,+1.0,+1.0,+1.0,+1.0,+1.0,+1.0,+1.0,+1.0,+1.0,+1.0,+1.0,+1.0,+1.0,+1.0,+1.0,+1.0,+1.0,+1.0,+1.0,+1.0,+1.0,+1.0,+1.0,+1.0,+1.0,+1.0,+1.0,+1.0,+1.0,+1.0,+1.0,+1.0,+1.0,+1.0,+1.0,+1.0,+1.0,+1.0,+1.0,+1.0,+1.0,+1.0,+1.0,+1.0,+1.0,+1.0,+1.0,+1.0,+1.0,+1.0,+1.0,+1.0,+1.0,+1.0,+1.0,+1.0,+1.0,+1.0,+1.0,+1.0,+1.0,+1.0,+1.0,+1.0,+1.0,+1.0,+1.0,+1.0,+1.0,+1.0,+1.0,+1.0,+1.0,+1.0,+1.0,+1.0,+1.0,+1.0,+1.0,+1.0,+1.0,+1.0,+1.0,+1.0,+1.0,+1.0,+1.0,+1.0,+1.0,+1.0,+1.0,+1.0,+1.0,+1.0,+1.0,+1.0,+1.0,+1.0,+1.0,+1.0,+1.0,+1.0,+1.0,+1.0,+1.0,+1.0,+1.0,+1.0,+1.0,+1.0,+1.0,+1.0,+1.0,+1.0,+1.0,+1.0,+1.0,+1.0,+1.0,+1.0,+1.0,+1.0,+1.0,+1.0,+1.0,+1.0,+1.0,+1.0,+1.0,+1.0,+1.0,+1.0,+1.0,+1.0,+1.0,+1.0,+1.0,+1.0,+1.0,+1.0,+1.0,+1.0,+1.0,+1.0,+1.0,+1.0,+1.0,+1.0,+1.0,+1.0,+1.0,+1.0,+1.0,+1.0,+1.0,+1.0,+1.0,+1.0,+1.0,+1.0,+1.0,+1.0,+1.0,+1.0,+1.0,+1.0,+1.0,+1.0,+1.0,+1.0,+1.0,+1.0,+1.0,+1.0,+1.0,+1.0,+1.0,+1.0,+1.0e+00}
0 1 1 1 1.250000
0 1 1 64 -0.250000
0 1 1 74 -0.250000
0 1 1 150 -0.250000
0 1 1 167 -0.250000
0 1 1 206 -0.250000
0 1 3 3 0.500000
0 1 3 19 -0.250000
0 1 3 144 -0.250000
0 1 4 4 1.0
0 1 4 42 -0.250000
0 1 4 64 -0.250000
0 1 4 74 -0.250000
0 1 4 201 -0.250000
0 1 5 5 0.500000
0 1 5 42 -0.250000
0 1 5 186 -0.250000
0 1 6 6 0.500000
0 1 6 60 -0.250000
0 1 6 165 -0.250000
0 1 7 7 0.750000
0 1 7 59 -0.250000
0 1 7 104 -0.250000
0 1 7 190 -0.250000
0 1 8 8 0.500000
0 1 8 115 -0.250000
0 1 8 154 -0.250000
0 1 9 9 0.250000
0 1 9 16 -0.250000
0 1 10 10 1.250000
0 1 10 15 -0.250000
0 1 10 130 -0.250000
0 1 10 146 -0.250000
0 1 10 148 -0.250000
0 1 10 186 -0.250000
0 1 11 11 0.500000
0 1 11 185 -0.250000
0 1 11 220 -0.250000
0 1 12 12 1.0
0 1 12 35 -0.250000
0 1 12 36 -0.250000
0 1 12 49 -0.250000
0 1 12 134 -0.250000
0 1 13 13 0.750000
0 1 13 140 -0.250000
0 1 13 152 -0.250000
0 1 13 225 -0.250000
0 1 14 14 1.0
0 1 14 79 -0.250000
0 1 14 93 -0.250000
0 1 14 169 -0.250000
0 1 14 241 -0.250000
0 1 15 15 1.0
0 1 15 125 -0.250000
0 1 15 228 -0.250000
0 1 15 234 -0.250000
0 1 16 16 1.0
0 1 16 61 -0.250000
0 1 16 65 -0.250000
0 1 16 177 -0.250000
0 1 17 17 1.500000
0 1 17 81 -0.250000
0 1 17 118 -0.250000
0 1 17 137 -0.250000
0 1 17 166 -0.250000
0 1 17 173 -0.250000
0 1 17 178 -0.250000
0 1 18 18 0.750000
0 1 18 24 -0.250000
0 1 18 27 -0.250000
0 1 18 100 -0.250000
0 1 19 19 0.500000
0 1 19 142 -0.250000
0 1 21 21 0.250000
0 1 21 165 -0.250000
0 1 22 22 0.750000
0 1 22 125 -0.250000
0 1 22 127 -0.250000
0 1 22 244 -0.250000
0 1 23 23 1.0
0 1 23 88 -0.250000
0 1 23 150 -0.250000
0 1 23 186 -0.250000
0 1 23 236 -0.250000
0 1 24 24 0.500000
0 1 24 118 -0.250000
0 1 25 25 0.500000
0 1 25 86 -0.250000
0 1 25 101 -0.250000
0 1 26 26 0.500000
0 1 26 188 -0.250000
0 1 26 208 -0.250000
0 1 27 27 1.500000
0 1 27 91 -0.250000
0 1 27 120 -0.250000
0 1 27 148 -0.250000
0 1 27 158 -0.250000
0 1 27 229 -0.250000
0 1 29 29 0.250000
0 1 29 86 -0.250000
0 1 30 30 0.250000
0 1 30 105 -0.250000
0 1 31 31 0.500000
0 1 31 144 -0.250000
0 1 31 239 -0.250000
0 1 32 32 0.500000
0 1 32 160 -0.250000
0 1 32 181 -0.250000
0 1 33 33 1.0
0 1 33 70 -0.250000
0 1 33 146 -0.250000
0 1 33 231 -0.250000
0 1 33 249 -0.250000
0 1 34 34 0.250000
0 1 34 238 -0.250000
0 1 35 35 1.0
0 1 35 48 -0.250000
0 1 35 72 -0.250000
0 1 35 218 -0.250000
0 1 36 36 0.500000
0 1 36 58 -0.250000
0 1 37 37 0.250000
0 1 37 71 -0.250000
0 1 38 38 0.750000
0 1 38 135 -0.250000
0 1 38 160 -0.250000
0 1 38 207 -0.250000
0 1 39 39 1.0
0 1 39 77 -0.250000
0 1 39 88 -0.250000
0 1 39 212 -0.250000
0 1 39 244 -0.250000
0 1 40 40 0.500000
0 1 40 68 -0.250000
0 1 40 136 -0.250000
0 1 41 41 0.750000
0 1 41 133 -0.250000
0 1 41 151 -0.250000
0 1 41 227 -0.250000
0 1 42 42 1.250000
0 1 42 57 -0.250000
0 1 42 60 -0.250000
0 1 42 234 -0.250000
0 1 43 43 0.250000
0 1 43 65 -0.250000
0 1 44 44 0.500000
0 1 44 135 -0.250000
0 1 44 173 -0.250000
0 1 45 45 0.750000
0 1 45 63 -0.250000
0 1 45 149 -0.250000
0 1 45 189 -0.250000
0 1 47 47 1.0
0 1 47 84 -0.250000
0 1 47 96 -0.250000
0 1 47 101 -0.250000
0 1 47 180 -0.250000
0 1 48 48 1.750000
0 1 48 101 -0.250000
0 1 48 180 -0.250000
0 1 48 195 -0.250000
0 1 48 211 -0.250000
0 1 48 235 -0.250000
0 1 48 240 -0.250000
0 1 49 49 1.0
0 1 49 77 -0.250000
0 1 49 189 -0.250000
0 1 49 192 -0.250000
0 1 50 50 0.750000
0 1 50 79 -0.250000
0 1 50 145 -0.250000
0 1 50 215 -0.250000
0 1 51 51 0.250000
0 1 51 190 -0.250000
0 1 52 52 0.250000
0 1 52 91 -0.250000
0 1 53 53 0.750000
0 1 53 78 -0.250000
0 1 53 79 -0.250000
0 1 53 164 -0.250000
0 1 54 54 0.250000
0 1 54 104 -0.250000
0 1 55 55 0.250000
0 1 55 162 -0.250000
0 1 56 56 0.750000
0 1 56 64 -0.250000
0 1 56 150 -0.250000
0 1 56 167 -0.250000
0 1 57 57 0.500000
0 1 57 160 -0.250000
0 1 58 58 0.500000
0 1 58 176 -0.250000
0 1 59 59 1.250000
0 1 59 142 -0.250000
0 1 59 184 -0.250000
0 1 59 193 -0.250000
0 1 59 204 -0.250000
0 1 60 60 0.750000
0 1 60 72 -0.250000
0 1 61 61 0.750000
0 1 61 85 -0.250000
0 1 61 89 -0.250000
0 1 62 62 1.0
0 1 62 78 -0.250000
0 1 62 105 -0.250000
0 1 62 161 -0.250000
0 1 62 225 -0.250000
0 1 63 63 1.0
0 1 63 128 -0.250000
0 1 63 144 -0.250000
0 1 63 232 -0.250000
0 1 64 64 1.750000
0 1 64 106 -0.250000
0 1 64 162 -0.250000
0 1 64 164 -0.250000
0 1 64 237 -0.250000
0 1 65 65 0.500000
0 1 66 66 0.750000
0 1 66 83 -0.250000
0 1 66 156 -0.250000
0 1 66 217 -0.250000
0 1 67 67 0.750000
0 1 67 70 -0.250000
0 1 67 197 -0.250000
0 1 67 217 -0.250000
0 1 68 68 1.250000
0 1 68 90 -0.250000
0 1 68 91 -0.250000
0 1 68 184 -0.250000
0 1 68 220 -0.250000
0 1 69 69 0.750000
0 1 69 92 -0.250000
0 1 69 161 -0.250000
0 1 69 163 -0.250000
0 1 70 70 1.500000
0 1 70 164 -0.250000
0 1 70 211 -0.250000
0 1 70 215 -0.250000
0 1 70 236 -0.250000
0 1 71 71 0.500000
0 1 71 163 -0.250000
0 1 72 72 1.0
0 1 72 107 -0.250000
0 1 72 238 -0.250000
0 1 73 73 0.250000
0 1 73 145 -0.250000
0 1 74 74 0.750000
0 1 74 185 -0.250000
0 1 75 75 0.250000
0 1 75 209 -0.250000
0 1 76 76 0.500000
0 1 76 80 -0.250000
0 1 76 215 -0.250000
0 1 77 77 0.500000
0 1 78 78 0.750000
0 1 78 156 -0.250000
0 1 79 79 1.0
0 1 79 146 -0.250000
0 1 80 80 0.500000
0 1 80 180 -0.250000
0 1 81 81 0.500000
0 1 81 160 -0.250000
0 1 82 82 1.0
0 1 82 156 -0.250000
0 1 82 186 -0.250000
0 1 82 243 -0.250000
0 1 82 248 -0.250000
0 1 83 83 1.0
0 1 83 193 -0.250000
0 1 83 203 -0.250000
0 1 83 247 -0.250000
0 1 84 84 0.750000
0 1 84 117 -0.250000
0 1 84 162 -0.250000
0 1 85 85 0.500000
0 1 85 87 -0.250000
0 1 86 86 0.750000
0 1 86 188 -0.250000
0 1 87 87 0.750000
0 1 87 115 -0.250000
0 1 87 174 -0.250000
0 1 88 88 1.0
0 1 88 93 -0.250000
0 1 88 157 -0.250000
0 1 89 89 1.0
0 1 89 149 -0.250000
0 1 89 198 -0.250000
0 1 89 245 -0.250000
0 1 90 90 1.250000
0 1 90 95 -0.250000
0 1 90 135 -0.250000
0 1 90 147 -0.250000
0 1 90 151 -0.250000
0 1 91 91 1.250000
0 1 91 152 -0.250000
0 1 91 187 -0.250000
0 1 92 92 0.750000
0 1 92 195 -0.250000
0 1 92 197 -0.250000
0 1 93 93 0.500000
0 1 94 94 0.250000
0 1 94 151 -0.250000
0 1 95 95 1.0
0 1 95 99 -0.250000
0 1 95 171 -0.250000
0 1 95 227 -0.250000
0 1 96 96 0.500000
0 1 96 111 -0.250000
0 1 97 97 0.500000
0 1 97 134 -0.250000
0 1 97 216 -0.250000
0 1 99 99 0.500000
0 1 99 176 -0.250000
0 1 100 100 0.500000
0 1 100 232 -0.250000
0 1 101 101 1.750000
0 1 101 114 -0.250000
0 1 101 145 -0.250000
0 1 101 150 -0.250000
0 1 101 169 -0.250000
0 1 103 103 0.250000
0 1 103 249 -0.250000
0 1 104 104 0.750000
0 1 104 208 -0.250000
0 1 105 105 1.500000
0 1 105 140 -0.250000
0 1 105 161 -0.250000
0 1 105 215 -0.250000
0 1 105 246 -0.250000
0 1 106 106 0.500000
0 1 106 154 -0.250000
0 1 107 107 0.250000
0 1 108 108 0.500000
0 1 108 113 -0.250000
0 1 108 117 -0.250000
0 1 109 109 0.750000
0 1 109 147 -0.250000
0 1 109 181 -0.250000
0 1 109 191 -0.250000
0 1 110 110 0.250000
0 1 110 118 -0.250000
0 1 111 111 0.500000
0 1 111 129 -0.250000
0 1 112 112 1.250000
0 1 112 135 -0.250000
0 1 112 149 -0.250000
0 1 112 192 -0.250000
0 1 112 193 -0.250000
0 1 112 208 -0.250000
0 1 113 113 1.0
0 1 113 176 -0.250000
0 1 113 202 -0.250000
0 1 113 219 -0.250000
0 1 114 114 0.500000
0 1 114 221 -0.250000
0 1 115 115 0.750000
0 1 115 122 -0.250000
0 1 117 117 0.500000
0 1 118 118 1.0
0 1 118 249 -0.250000
0 1 119 119 0.250000
0 1 119 172 -0.250000
0 1 120 120 0.500000
0 1 120 212 -0.250000
0 1 122 122 0.250000
0 1 123 123 0.500000
0 1 123 212 -0.250000
0 1 123 232 -0.250000
0 1 124 124 0.750000
0 1 124 131 -0.250000
0 1 124 155 -0.250000
0 1 124 208 -0.250000
0 1 125 125 0.500000
0 1 127 127 0.250000
0 1 128 128 0.500000
0 1 128 155 -0.250000
0 1 129 129 0.750000
0 1 129 161 -0.250000
0 1 129 163 -0.250000
0 1 130 130 0.500000
0 1 130 233 -0.250000
0 1 131 131 0.250000
0 1 132 132 0.250000
0 1 132 159 -0.250000
0 1 133 133 0.250000
0 1 134 134 0.500000
0 1 135 135 1.250000
0 1 135 175 -0.250000
0 1 136 136 0.500000
0 1 136 176 -0.250000
0 1 137 137 0.750000
0 1 137 182 -0.250000
0 1 137 236 -0.250000
0 1 139 139 0.500000
0 1 139 164 -0.250000
0 1 139 208 -0.250000
0 1 140 140 1.0
0 1 140 171 -0.250000
0 1 140 228 -0.250000
0 1 142 142 0.750000
0 1 142 189 -0.250000
0 1 143 143 0.500000
0 1 143 172 -0.250000
0 1 143 187 -0.250000
0 1 144 144 1.0
0 1 144 230 -0.250000
0 1 145 145 1.0
0 1 145 189 -0.250000
0 1 146 146 1.500000
0 1 146 165 -0.250000
0 1 146 196 -0.250000
0 1 146 220 -0.250000
0 1 147 147 0.500000
0 1 148 148 0.500000
0 1 149 149 1.250000
0 1 149 158 -0.250000
0 1 149 212 -0.250000
0 1 150 150 1.500000
0 1 150 188 -0.250000
0 1 150 233 -0.250000
0 1 151 151 0.750000
0 1 152 152 0.750000
0 1 152 193 -0.250000
0 1 153 153 0.250000
0 1 153 191 -0.250000
0 1 154 154 0.750000
0 1 154 229 -0.250000
0 1 155 155 0.500000
0 1 156 156 1.250000
0 1 156 164 -0.250000
0 1 156 214 -0.250000
0 1 157 157 0.750000
0 1 157 192 -0.250000
0 1 157 198 -0.250000
0 1 158 158 0.500000
0 1 159 159 0.500000
0 1 159 193 -0.250000
0 1 160 160 1.0
0 1 161 161 1.250000
0 1 161 166 -0.250000
0 1 162 162 0.750000
0 1 163 163 1.0
0 1 163 188 -0.250000
0 1 164 164 1.250000
0 1 165 165 1.0
0 1 165 212 -0.250000
0 1 166 166 0.750000
0 1 166 236 -0.250000
0 1 167 167 0.750000
0 1 167 232 -0.250000
0 1 169 169 1.0
0 1 169 197 -0.250000
0 1 169 244 -0.250000
0 1 171 171 0.750000
0 1 171 180 -0.250000
0 1 172 172 0.750000
0 1 172 190 -0.250000
0 1 173 173 0.500000
0 1 174 174 0.250000
0 1 175 175 0.250000
0 1 176 176 1.250000
0 1 176 231 -0.250000
0 1 177 177 0.500000
0 1 177 244 -0.250000
0 1 178 178 0.500000
0 1 178 205 -0.250000
0 1 179 179 0.500000
0 1 179 191 -0.250000
0 1 179 249 -0.250000
0 1 180 180 1.500000
0 1 180 204 -0.250000
0 1 180 228 -0.250000
0 1 181 181 1.0
0 1 181 190 -0.250000
0 1 181 234 -0.250000
0 1 182 182 0.500000
0 1 182 240 -0.250000
0 1 183 183 0.500000
0 1 183 201 -0.250000
0 1 183 235 -0.250000
0 1 184 184 0.500000
0 1 185 185 1.0
0 1 185 192 -0.250000
0 1 185 244 -0.250000
0 1 186 186 1.250000
0 1 186 247 -0.250000
0 1 187 187 0.500000
0 1 188 188 1.0
0 1 189 189 1.250000
0 1 189 246 -0.250000
0 1 190 190 1.250000
0 1 190 209 -0.250000
0 1 191 191 1.0
0 1 191 199 -0.250000
0 1 192 192 1.0
0 1 193 193 1.250000
0 1 195 195 0.750000
0 1 195 217 -0.250000
0 1 196 196 0.250000
0 1 197 197 0.750000
0 1 198 198 0.500000
0 1 199 199 0.250000
0 1 201 201 0.500000
0 1 202 202 0.250000
0 1 203 203 0.500000
0 1 203 238 -0.250000
0 1 204 204 0.500000
0 1 205 205 0.250000
0 1 206 206 0.250000
0 1 207 207 0.500000
0 1 207 250 -0.250000
0 1 208 208 1.500000
0 1 208 214 -0.250000
0 1 209 209 0.500000
0 1 211 211 1.0
0 1 211 227 -0.250000
0 1 211 231 -0.250000
0 1 212 212 1.500000
0 1 212 219 -0.250000
0 1 214 214 0.500000
0 1 215 215 1.0
0 1 216 216 0.250000
0 1 217 217 0.750000
0 1 218 218 0.500000
0 1 218 247 -0.250000
0 1 219 219 0.500000
0 1 220 220 0.750000
0 1 221 221 0.250000
0 1 223 223 0.250000
0 1 223 230 -0.250000
0 1 225 225 0.750000
0 1 225 226 -0.250000
0 1 226 226 0.250000
0 1 227 227 1.0
0 1 227 235 -0.250000
0 1 228 228 0.750000
0 1 229 229 0.500000
0 1 230 230 0.500000
0 1 231 231 0.750000
0 1 232 232 1.0
0 1 233 233 0.500000
0 1 234 234 0.750000
0 1 235 235 1.0
0 1 235 245 -0.250000
0 1 236 236 1.0
0 1 237 237 0.500000
0 1 237 239 -0.250000
0 1 238 238 0.750000
0 1 239 239 0.500000
0 1 240 240 0.750000
0 1 240 249 -0.250000
0 1 241 241 0.500000
0 1 241 250 -0.250000
0 1 243 243 0.250000
0 1 244 244 1.250000
0 1 245 245 0.500000
0 1 246 246 0.500000
0 1 247 247 0.750000
0 1 248 248 0.250000
0 1 249 249 1.250000
0 1 250 250 0.500000
1 1 1 1 1.0
2 1 2 2 1.0
3 1 3 3 1.0
4 1 4 4 1.0
5 1 5 5 1.0
6 1 6 6 1.0
7 1 7 7 1.0
8 1 8 8 1.0
9 1 9 9 1.0
10 1 10 10 1.0
11 1 11 11 1.0
12 1 12 12 1.0
13 1 13 13 1.0
14 1 14 14 1.0
15 1 15 15 1.0
16 1 16 16 1.0
17 1 17 17 1.0
18 1 18 18 1.0
19 1 19 19 1.0
20 1 20 20 1.0
21 1 21 21 1.0
22 1 22 22 1.0
23 1 23 23 1.0
24 1 24 24 1.0
25 1 25 25 1.0
26 1 26 26 1.0
27 1 27 27 1.0
28 1 28 28 1.0
29 1 29 29 1.0
30 1 30 30 1.0
31 1 31 31 1.0
32 1 32 32 1.0
33 1 33 33 1.0
34 1 34 34 1.0
35 1 35 35 1.0
36 1 36 36 1.0
37 1 37 37 1.0
38 1 38 38 1.0
39 1 39 39 1.0
40 1 40 40 1.0
41 1 41 41 1.0
42 1 42 42 1.0
43 1 43 43 1.0
44 1 44 44 1.0
45 1 45 45 1.0
46 1 46 46 1.0
47 1 47 47 1.0
48 1 48 48 1.0
49 1 49 49 1.0
50 1 50 50 1.0
51 1 51 51 1.0
52 1 52 52 1.0
53 1 53 53 1.0
54 1 54 54 1.0
55 1 55 55 1.0
56 1 56 56 1.0
57 1 57 57 1.0
58 1 58 58 1.0
59 1 59 59 1.0
60 1 60 60 1.0
61 1 61 61 1.0
62 1 62 62 1.0
63 1 63 63 1.0
64 1 64 64 1.0
65 1 65 65 1.0
66 1 66 66 1.0
67 1 67 67 1.0
68 1 68 68 1.0
69 1 69 69 1.0
70 1 70 70 1.0
71 1 71 71 1.0
72 1 72 72 1.0
73 1 73 73 1.0
74 1 74 74 1.0
75 1 75 75 1.0
76 1 76 76 1.0
77 1 77 77 1.0
78 1 78 78 1.0
79 1 79 79 1.0
80 1 80 80 1.0
81 1 81 81 1.0
82 1 82 82 1.0
83 1 83 83 1.0
84 1 84 84 1.0
85 1 85 85 1.0
86 1 86 86 1.0
87 1 87 87 1.0
88 1 88 88 1.0
89 1 89 89 1.0
90 1 90 90 1.0
91 1 91 91 1.0
92 1 92 92 1.0
93 1 93 93 1.0
94 1 94 94 1.0
95 1 95 95 1.0
96 1 96 96 1.0
97 1 97 97 1.0
98 1 98 98 1.0
99 1 99 99 1.0
100 1 100 100 1.0
101 1 101 101 1.0
102 1 102 102 1.0
103 1 103 103 1.0
104 1 104 104 1.0
105 1 105 105 1.0
106 1 106 106 1.0
107 1 107 107 1.0
108 1 108 108 1.0
109 1 109 109 1.0
110 1 110 110 1.0
111 1 111 111 1.0
112 1 112 112 1.0
113 1 113 113 1.0
114 1 114 114 1.0
115 1 115 115 1.0
116 1 116 116 1.0
117 1 117 117 1.0
118 1 118 118 1.0
119 1 119 119 1.0
120 1 120 120 1.0
121 1 121 121 1.0
122 1 122 122 1.0
123 1 123 123 1.0
124 1 124 124 1.0
125 1 125 125 1.0
126 1 126 126 1.0
127 1 127 127 1.0
128 1 128 128 1.0
129 1 129 129 1.0
130 1 130 130 1.0
131 1 131 131 1.0
132 1 132 132 1.0
133 1 133 133 1.0
134 1 134 134 1.0
135 1 135 135 1.0
136 1 136 136 1.0
137 1 137 137 1.0
138 1 138 138 1.0
139 1 139 139 1.0
140 1 140 140 1.0
141 1 141 141 1.0
142 1 142 142 1.0
143 1 143 143 1.0
144 1 144 144 1.0
145 1 145 145 1.0
146 1 146 146 1.0
147 1 147 147 1.0
148 1 148 148 1.0
149 1 149 149 1.0
150 1 150 150 1.0
151 1 151 151 1.0
152 1 152 152 1.0
153 1 153 153 1.0
154 1 154 154 1.0
155 1 155 155 1.0
156 1 156 156 1.0
157 1 157 157 1.0
158 1 158 158 1.0
159 1 159 159 1.0
160 1 160 160 1.0
161 1 161 161 1.0
162 1 162 162 1.0
163 1 163 163 1.0
164 1 164 164 1.0
165 1 165 165 1.0
166 1 166 166 1.0
167 1 167 167 1.0
168 1 168 168 1.0
169 1 169 169 1.0
170 1 170 170 1.0
171 1 171 171 1.0
172 1 172 172 1.0
173 1 173 173 1.0
174 1 174 174 1.0
175 1 175 175 1.0
176 1 176 176 1.0
177 1 177 177 1.0
178 1 178 178 1.0
179 1 179 179 1.0
180 1 180 180 1.0
181 1 181 181 1.0
182 1 182 182 1.0
183 1 183 183 1.0
184 1 184 184 1.0
185 1 185 185 1.0
186 1 186 186 1.0
187 1 187 187 1.0
188 1 188 188 1.0
189 1 189 189 1.0
190 1 190 190 1.0
191 1 191 191 1.0
192 1 192 192 1.0
193 1 193 193 1.0
194 1 194 194 1.0
195 1 195 195 1.0
196 1 196 196 1.0
197 1 197 197 1.0
198 1 198 198 1.0
199 1 199 199 1.0
200 1 200 200 1.0
201 1 201 201 1.0
202 1 202 202 1.0
203 1 203 203 1.0
204 1 204 204 1.0
205 1 205 205 1.0
206 1 206 206 1.0
207 1 207 207 1.0
208 1 208 208 1.0
209 1 209 209 1.0
210 1 210 210 1.0
211 1 211 211 1.0
212 1 212 212 1.0
213 1 213 213 1.0
214 1 214 214 1.0
215 1 215 215 1.0
216 1 216 216 1.0
217 1 217 217 1.0
218 1 218 218 1.0
219 1 219 219 1.0
220 1 220 220 1.0
221 1 221 221 1.0
222 1 222 222 1.0
223 1 223 223 1.0
224 1 224 224 1.0
225 1 225 225 1.0
226 1 226 226 1.0
227 1 227 227 1.0
228 1 228 228 1.0
229 1 229 229 1.0
230 1 230 230 1.0
231 1 231 231 1.0
232 1 232 232 1.0
233 1 233 233 1.0
234 1 234 234 1.0
235 1 235 235 1.0
236 1 236 236 1.0
237 1 237 237 1.0
238 1 238 238 1.0
239 1 239 239 1.0
240 1 240 240 1.0
241 1 241 241 1.0
242 1 242 242 1.0
243 1 243 243 1.0
244 1 244 244 1.0
245 1 245 245 1.0
246 1 246 246 1.0
247 1 247 247 1.0
248 1 248 248 1.0
249 1 249 249 1.0
250 1 250 250 1.0
